Route #1: 117 108 97 72 113 46 4 115 91 36 93 7 41 112 103 73 88 63 55 21
Route #2: 35 28 12 57 2 25 38 58 78 101 60 23 5 96 61 69 70 82 54 9 79
Route #3: 100 104 18 76 47 67 109 118 27 6 48 102 106 105 64 52 90 86 42 14 99
Route #4: 89 39 30 13 50 3 44 77 114 65 83 110 43 40 71 56 94 17 85 120 62
Route #5: 11 95 81 33 92 22 80 119 31 68 26 74 32 53 51
Route #6: 34 37 116 49 87 66 75 111 107 8 98 20 29 19 45 10 16 84 59 15 24
